Version identifier: 22.1.1.0 | 2022-11-28 | 9160aff4d
CPXPARAM_ClockType                               1
CPXPARAM_Read_DataCheck                          1
CPXPARAM_Threads                                 1
CPXPARAM_TimeLimit                               7200
CPXPARAM_MIP_Tolerances_AbsMIPGap                0
CPXPARAM_MIP_Tolerances_MIPGap                   0
CPXPARAM_MIP_Tolerances_Integrality              0
Tried aggregator 9 times.
MIP Presolve eliminated 38202 rows and 25422 columns.
MIP Presolve modified 24 coefficients.
Aggregator did 6396 substitutions.
Reduced MIP has 8878 rows, 5607 columns, and 32272 nonzeros.
Reduced MIP has 5607 binaries, 0 generals, 0 SOSs, and 0 indicators.
Presolve time = 0.15 sec. (126.56 ticks)
Found incumbent of value 849.000000 after 0.20 sec. (157.97 ticks)
Probing time = 0.02 sec. (6.46 ticks)
Tried aggregator 1 time.
Detecting symmetries...
MIP Presolve eliminated 44 rows and 44 columns.
Reduced MIP has 8834 rows, 5563 columns, and 32140 nonzeros.
Reduced MIP has 5563 binaries, 0 generals, 0 SOSs, and 0 indicators.
Presolve time = 0.05 sec. (29.53 ticks)
Probing time = 0.01 sec. (3.28 ticks)
Clique table members: 9100.
MIP emphasis: balance optimality and feasibility.
MIP search method: dynamic search.
Parallel mode: none, using 1 thread.
Root relaxation solution time = 0.03 sec. (23.32 ticks)

        Nodes                                         Cuts/
   Node  Left     Objective  IInf  Best Integer    Best Bound    ItCnt     Gap

*     0+    0                          849.0000     1130.0000            33.10%
      0     0     1127.0000   310      849.0000     1127.0000      374   32.74%
      0     0     1118.0000   161      849.0000     Cuts: 104      534   31.68%
      0     0     1118.0000   160      849.0000      Cuts: 51      573   31.68%
      0     0     1118.0000   124      849.0000       Cuts: 6      584   31.68%
      0     0     1118.0000    96      849.0000      Cuts: 57      621   31.68%
      0     0     1118.0000   110      849.0000  ZeroHalf: 29      647   31.68%
Detecting symmetries...
*     0+    0                         1118.0000     1118.0000             0.00%
      0     0        cutoff           1118.0000     1118.0000      647    0.00%
      0     0        cutoff           1118.0000     1118.0000      647    0.00%
Elapsed time = 0.84 sec. (601.10 ticks, tree = 0.01 MB, solutions = 2)

Clique cuts applied:  36
Implied bound cuts applied:  4
Zero-half cuts applied:  76
Gomory fractional cuts applied:  4

Root node processing (before b&c):
  Real time             =    0.84 sec. (602.40 ticks)
Sequential b&c:
  Real time             =    0.00 sec. (0.00 ticks)
                          ------------
Total (root+branch&cut) =    0.84 sec. (602.40 ticks)
Solution is feasible.

---------------------
@@@ MIP_optimal
>>> Benchmark mc2024_track1_015.cnf k 2 OPT 1118 TimeCost 22.879348278045654 TimeSolve 0.8855926990509033 TimeRead 0.01359415054321289 TimeTrans 21.980161428451538
